73825, 58825, 55825, 51025, 52625, 58625, 51625, 46425, 47025, 44225, 42025, 41625, 34425, 36625, 38225, 41425, 40825, 43425, 47425, 54225, 50625, 56825, 59625, 54225, 49825, 45025, 37425, 34225, 34625, 33825, 32425, 30425, 26425, 22025, 24625, 24825, 26425, 29625, 26625, 33625, 33225, 41625, 46825, 47025, 55225, 59625, 64425, 67225, 69425, 66025, 66025, 60425, 57025, 54625, 53825, 48625, 42825, 42825, 42025, 36825, 29425, 29025, 29425, 31625, 34025, 30000, 26225, 14825, 13025, 14825, 18025, 18425, 18025, 17425, 13825, 08625, 12225, 07225, 10025, 05825, 11625, 09025, 05625, 04625, 04425, 03825